70
1 0 3
2 0 2
2 1 5
3 0 5
3 1 2
3 2 5
4 0 5
4 1 4
4 2 2
4 3 9
5 0 5
5 1 6
5 2 4
5 3 9
5 4 1
6 0 6
6 1 3
6 2 1
6 3 7
6 4 9
6 5 7
7 0 3
7 1 6
7 2 2
7 3 7
7 4 9
7 5 5
7 6 8
8 0 5
8 1 9
8 2 8
8 3 7
8 4 6
8 5 1
8 6 8
8 7 8
9 0 4
9 1 5
9 2 1
9 3 3
9 4 3
9 5 1
9 6 7
9 7 2
9 8 7
10 0 8
10 1 8
10 2 2
10 3 6
10 4 5
10 5 8
10 6 5
10 7 9
10 8 4
10 9 1
11 0 4
11 1 4
11 2 5
11 3 3
11 4 7
11 5 2
11 6 2
11 7 8
11 8 2
11 9 1
11 10 4
12 0 3
12 1 1
12 2 4
12 3 5
12 4 5
12 5 4
12 6 4
12 7 3
12 8 3
12 9 9
12 10 8
12 11 6
13 0 8
13 1 9
13 2 1
13 3 3
13 4 2
13 5 1
13 6 3
13 7 9
13 8 5
13 9 9
13 10 6
13 11 8
13 12 7
14 0 2
14 1 6
14 2 5
14 3 2
14 4 1
14 5 8
14 6 9
14 7 9
14 8 3
14 9 1
14 10 5
14 11 5
14 12 5
14 13 5
15 0 1
15 1 5
15 2 3
15 3 3
15 4 5
15 5 2
15 6 4
15 7 8
15 8 7
15 9 2
15 10 4
15 11 1
15 12 7
15 13 4
15 14 2
16 0 8
16 1 3
16 2 3
16 3 9
16 4 3
16 5 7
16 6 8
16 7 8
16 8 3
16 9 3
16 10 9
16 11 4
16 12 5
16 13 2
16 14 7
16 15 2
17 0 5
17 1 1
17 2 2
17 3 1
17 4 1
17 5 1
17 6 9
17 7 6
17 8 8
17 9 7
17 10 9
17 11 1
17 12 1
17 13 4
17 14 1
17 15 7
17 16 1
18 0 4
18 1 5
18 2 2
18 3 2
18 4 2
18 5 7
18 6 3
18 7 2
18 8 8
18 9 3
18 10 7
18 11 6
18 12 1
18 13 2
18 14 3
18 15 8
18 16 3
18 17 7
19 0 4
19 1 3
19 2 1
19 3 8
19 4 9
19 5 5
19 6 2
19 7 4
19 8 1
19 9 1
19 10 4
19 11 9
19 12 4
19 13 2
19 14 3
19 15 9
19 16 4
19 17 9
19 18 3
20 0 9
20 1 8
20 2 9
20 3 8
20 4 2
20 5 5
20 6 6
20 7 5
20 8 1
20 9 8
20 10 1
20 11 5
20 12 6
20 13 1
20 14 9
20 15 8
20 16 9
20 17 5
20 18 2
20 19 8
21 0 4
21 1 7
21 2 6
21 3 9
21 4 7
21 5 6
21 6 6
21 7 6
21 8 1
21 9 8
21 10 4
21 11 2
21 12 2
21 13 3
21 14 8
21 15 2
21 16 3
21 17 9
21 18 7
21 19 1
21 20 5
22 0 7
22 1 7
22 2 8
22 3 1
22 4 5
22 5 5
22 6 2
22 7 3
22 8 1
22 9 5
22 10 3
22 11 4
22 12 7
22 13 7
22 14 8
22 15 4
22 16 9
22 17 7
22 18 9
22 19 8
22 20 6
22 21 9
23 0 4
23 1 5
23 2 8
23 3 6
23 4 4
23 5 7
23 6 4
23 7 9
23 8 3
23 9 9
23 10 9
23 11 9
23 12 7
23 13 7
23 14 5
23 15 4
23 16 8
23 17 5
23 18 4
23 19 1
23 20 8
23 21 5
23 22 8
24 0 3
24 1 7
24 2 7
24 3 2
24 4 3
24 5 7
24 6 9
24 7 9
24 8 5
24 9 7
24 10 8
24 11 2
24 12 4
24 13 3
24 14 3
24 15 3
24 16 6
24 17 3
24 18 9
24 19 8
24 20 1
24 21 3
24 22 3
24 23 3
25 0 1
25 1 3
25 2 5
25 3 3
25 4 8
25 5 1
25 6 9
25 7 4
25 8 9
25 9 1
25 10 8
25 11 6
25 12 1
25 13 5
25 14 4
25 15 1
25 16 4
25 17 7
25 18 7
25 19 5
25 20 3
25 21 5
25 22 5
25 23 8
25 24 2
26 0 8
26 1 8
26 2 3
26 3 2
26 4 9
26 5 3
26 6 8
26 7 1
26 8 3
26 9 1
26 10 9
26 11 3
26 12 5
26 13 3
26 14 8
26 15 6
26 16 8
26 17 9
26 18 7
26 19 4
26 20 2
26 21 2
26 22 5
26 23 1
26 24 2
26 25 9
27 0 1
27 1 8
27 2 3
27 3 9
27 4 7
27 5 4
27 6 1
27 7 5
27 8 6
27 9 7
27 10 5
27 11 6
27 12 1
27 13 4
27 14 7
27 15 7
27 16 8
27 17 6
27 18 4
27 19 1
27 20 8
27 21 4
27 22 7
27 23 1
27 24 1
27 25 1
27 26 9
28 0 1
28 1 2
28 2 1
28 3 1
28 4 3
28 5 9
28 6 2
28 7 2
28 8 4
28 9 2
28 10 9
28 11 3
28 12 9
28 13 1
28 14 5
28 15 4
28 16 1
28 17 9
28 18 5
28 19 7
28 20 3
28 21 9
28 22 8
28 23 3
28 24 4
28 25 3
28 26 7
28 27 3
29 0 7
29 1 8
29 2 6
29 3 6
29 4 4
29 5 9
29 6 5
29 7 9
29 8 1
29 9 5
29 10 7
29 11 4
29 12 6
29 13 5
29 14 8
29 15 6
29 16 6
29 17 7
29 18 3
29 19 3
29 20 2
29 21 6
29 22 5
29 23 4
29 24 2
29 25 2
29 26 1
29 27 5
29 28 9
30 0 6
30 1 8
30 2 4
30 3 3
30 4 5
30 5 7
30 6 8
30 7 1
30 8 1
30 9 7
30 10 1
30 11 9
30 12 3
30 13 2
30 14 9
30 15 3
30 16 2
30 17 4
30 18 5
30 19 7
30 20 8
30 21 1
30 22 2
30 23 1
30 24 6
30 25 2
30 26 1
30 27 7
30 28 1
30 29 3
31 0 2
31 1 5
31 2 8
31 3 3
31 4 1
31 5 2
31 6 2
31 7 7
31 8 1
31 9 2
31 10 9
31 11 6
31 12 4
31 13 3
31 14 3
31 15 7
31 16 6
31 17 3
31 18 6
31 19 5
31 20 4
31 21 2
31 22 8
31 23 8
31 24 6
31 25 5
31 26 7
31 27 4
31 28 3
31 29 2
31 30 4
32 0 9
32 1 5
32 2 2
32 3 1
32 4 9
32 5 7
32 6 8
32 7 9
32 8 5
32 9 8
32 10 9
32 11 1
32 12 2
32 13 7
32 14 1
32 15 1
32 16 3
32 17 4
32 18 5
32 19 9
32 20 7
32 21 7
32 22 9
32 23 4
32 24 8
32 25 5
32 26 3
32 27 9
32 28 3
32 29 4
32 30 1
32 31 8
33 0 8
33 1 8
33 2 7
33 3 8
33 4 4
33 5 2
33 6 9
33 7 6
33 8 2
33 9 7
33 10 4
33 11 9
33 12 1
33 13 2
33 14 5
33 15 1
33 16 3
33 17 6
33 18 5
33 19 6
33 20 5
33 21 2
33 22 1
33 23 2
33 24 3
33 25 9
33 26 3
33 27 5
33 28 8
33 29 9
33 30 8
33 31 8
33 32 5
34 0 7
34 1 7
34 2 3
34 3 5
34 4 2
34 5 1
34 6 4
34 7 2
34 8 9
34 9 6
34 10 9
34 11 2
34 12 8
34 13 8
34 14 6
34 15 3
34 16 8
34 17 1
34 18 7
34 19 4
34 20 3
34 21 8
34 22 9
34 23 7
34 24 5
34 25 5
34 26 1
34 27 8
34 28 1
34 29 8
34 30 9
34 31 2
34 32 4
34 33 6
35 0 5
35 1 5
35 2 3
35 3 6
35 4 6
35 5 1
35 6 9
35 7 6
35 8 5
35 9 7
35 10 6
35 11 4
35 12 1
35 13 9
35 14 2
35 15 1
35 16 3
35 17 9
35 18 7
35 19 2
35 20 1
35 21 5
35 22 3
35 23 4
35 24 1
35 25 5
35 26 1
35 27 7
35 28 6
35 29 9
35 30 6
35 31 8
35 32 2
35 33 1
35 34 2
36 0 5
36 1 2
36 2 7
36 3 2
36 4 5
36 5 1
36 6 1
36 7 5
36 8 2
36 9 2
36 10 9
36 11 7
36 12 2
36 13 4
36 14 1
36 15 1
36 16 2
36 17 2
36 18 2
36 19 4
36 20 9
36 21 4
36 22 9
36 23 9
36 24 8
36 25 8
36 26 1
36 27 9
36 28 8
36 29 5
36 30 7
36 31 4
36 32 1
36 33 5
36 34 4
36 35 6
37 0 2
37 1 8
37 2 4
37 3 6
37 4 5
37 5 7
37 6 8
37 7 9
37 8 9
37 9 3
37 10 4
37 11 1
37 12 2
37 13 5
37 14 5
37 15 4
37 16 8
37 17 6
37 18 9
37 19 7
37 20 6
37 21 1
37 22 1
37 23 8
37 24 1
37 25 5
37 26 5
37 27 2
37 28 9
37 29 6
37 30 4
37 31 3
37 32 6
37 33 1
37 34 6
37 35 7
37 36 7
38 0 4
38 1 2
38 2 8
38 3 2
38 4 4
38 5 8
38 6 3
38 7 8
38 8 7
38 9 9
38 10 3
38 11 6
38 12 4
38 13 4
38 14 2
38 15 6
38 16 2
38 17 5
38 18 8
38 19 6
38 20 8
38 21 7
38 22 1
38 23 8
38 24 8
38 25 3
38 26 4
38 27 8
38 28 1
38 29 4
38 30 7
38 31 8
38 32 5
38 33 5
38 34 3
38 35 2
38 36 6
38 37 4
39 0 6
39 1 5
39 2 6
39 3 4
39 4 1
39 5 8
39 6 7
39 7 5
39 8 3
39 9 3
39 10 1
39 11 1
39 12 9
39 13 1
39 14 6
39 15 4
39 16 3
39 17 1
39 18 2
39 19 8
39 20 6
39 21 3
39 22 7
39 23 5
39 24 5
39 25 9
39 26 1
39 27 3
39 28 6
39 29 4
39 30 7
39 31 8
39 32 5
39 33 3
39 34 9
39 35 7
39 36 3
39 37 3
39 38 9
40 0 8
40 1 1
40 2 8
40 3 4
40 4 6
40 5 4
40 6 4
40 7 7
40 8 3
40 9 9
40 10 3
40 11 1
40 12 9
40 13 7
40 14 9
40 15 4
40 16 8
40 17 7
40 18 5
40 19 2
40 20 9
40 21 6
40 22 5
40 23 8
40 24 1
40 25 5
40 26 7
40 27 1
40 28 3
40 29 9
40 30 1
40 31 8
40 32 4
40 33 4
40 34 7
40 35 9
40 36 2
40 37 9
40 38 5
40 39 8
41 0 3
41 1 1
41 2 1
41 3 4
41 4 9
41 5 4
41 6 3
41 7 8
41 8 6
41 9 1
41 10 1
41 11 2
41 12 9
41 13 6
41 14 5
41 15 5
41 16 4
41 17 4
41 18 2
41 19 4
41 20 2
41 21 7
41 22 5
41 23 5
41 24 8
41 25 3
41 26 3
41 27 9
41 28 6
41 29 2
41 30 7
41 31 6
41 32 9
41 33 7
41 34 4
41 35 2
41 36 2
41 37 9
41 38 8
41 39 7
41 40 9
42 0 3
42 1 1
42 2 6
42 3 4
42 4 9
42 5 5
42 6 2
42 7 3
42 8 6
42 9 3
42 10 4
42 11 3
42 12 1
42 13 9
42 14 9
42 15 7
42 16 8
42 17 5
42 18 6
42 19 2
42 20 5
42 21 6
42 22 1
42 23 7
42 24 4
42 25 8
42 26 6
42 27 9
42 28 6
42 29 8
42 30 9
42 31 8
42 32 6
42 33 2
42 34 8
42 35 6
42 36 8
42 37 7
42 38 3
42 39 2
42 40 5
42 41 7
43 0 9
43 1 1
43 2 5
43 3 3
43 4 3
43 5 8
43 6 9
43 7 5
43 8 2
43 9 1
43 10 6
43 11 9
43 12 4
43 13 8
43 14 9
43 15 6
43 16 6
43 17 9
43 18 7
43 19 8
43 20 2
43 21 1
43 22 5
43 23 2
43 24 3
43 25 7
43 26 5
43 27 9
43 28 9
43 29 7
43 30 6
43 31 3
43 32 2
43 33 6
43 34 9
43 35 5
43 36 9
43 37 5
43 38 3
43 39 6
43 40 3
43 41 4
43 42 9
44 0 4
44 1 2
44 2 5
44 3 6
44 4 7
44 5 8
44 6 2
44 7 8
44 8 7
44 9 4
44 10 5
44 11 4
44 12 8
44 13 6
44 14 6
44 15 6
44 16 8
44 17 1
44 18 1
44 19 2
44 20 6
44 21 9
44 22 5
44 23 1
44 24 5
44 25 3
44 26 9
44 27 2
44 28 4
44 29 6
44 30 5
44 31 7
44 32 3
44 33 9
44 34 4
44 35 8
44 36 2
44 37 5
44 38 3
44 39 1
44 40 4
44 41 3
44 42 7
44 43 1
45 0 9
45 1 3
45 2 2
45 3 3
45 4 4
45 5 6
45 6 8
45 7 4
45 8 9
45 9 6
45 10 4
45 11 5
45 12 7
45 13 7
45 14 5
45 15 1
45 16 7
45 17 7
45 18 8
45 19 4
45 20 9
45 21 7
45 22 2
45 23 6
45 24 1
45 25 7
45 26 5
45 27 6
45 28 9
45 29 8
45 30 4
45 31 7
45 32 6
45 33 1
45 34 3
45 35 8
45 36 6
45 37 2
45 38 1
45 39 3
45 40 7
45 41 8
45 42 9
45 43 4
45 44 7
46 0 8
46 1 4
46 2 8
46 3 5
46 4 6
46 5 7
46 6 2
46 7 6
46 8 7
46 9 4
46 10 1
46 11 8
46 12 5
46 13 9
46 14 9
46 15 7
46 16 9
46 17 6
46 18 2
46 19 5
46 20 5
46 21 3
46 22 8
46 23 9
46 24 8
46 25 5
46 26 2
46 27 3
46 28 9
46 29 9
46 30 4
46 31 8
46 32 6
46 33 3
46 34 2
46 35 9
46 36 2
46 37 5
46 38 2
46 39 9
46 40 1
46 41 2
46 42 5
46 43 4
46 44 2
46 45 9
47 0 1
47 1 3
47 2 4
47 3 2
47 4 1
47 5 7
47 6 1
47 7 7
47 8 5
47 9 6
47 10 9
47 11 7
47 12 6
47 13 4
47 14 6
47 15 7
47 16 6
47 17 2
47 18 3
47 19 1
47 20 6
47 21 6
47 22 4
47 23 7
47 24 2
47 25 8
47 26 3
47 27 4
47 28 7
47 29 2
47 30 9
47 31 7
47 32 1
47 33 9
47 34 8
47 35 4
47 36 7
47 37 4
47 38 6
47 39 2
47 40 1
47 41 3
47 42 6
47 43 6
47 44 4
47 45 1
47 46 9
48 0 6
48 1 6
48 2 5
48 3 1
48 4 5
48 5 7
48 6 9
48 7 3
48 8 5
48 9 5
48 10 9
48 11 2
48 12 1
48 13 1
48 14 4
48 15 1
48 16 9
48 17 2
48 18 6
48 19 3
48 20 8
48 21 7
48 22 3
48 23 7
48 24 2
48 25 1
48 26 7
48 27 8
48 28 5
48 29 2
48 30 3
48 31 6
48 32 4
48 33 8
48 34 8
48 35 5
48 36 8
48 37 9
48 38 5
48 39 2
48 40 6
48 41 6
48 42 4
48 43 5
48 44 3
48 45 3
48 46 2
48 47 7
49 0 7
49 1 9
49 2 3
49 3 3
49 4 8
49 5 9
49 6 4
49 7 8
49 8 1
49 9 4
49 10 6
49 11 8
49 12 8
49 13 4
49 14 3
49 15 6
49 16 8
49 17 7
49 18 3
49 19 4
49 20 4
49 21 4
49 22 7
49 23 2
49 24 3
49 25 3
49 26 5
49 27 2
49 28 4
49 29 3
49 30 7
49 31 5
49 32 1
49 33 5
49 34 5
49 35 6
49 36 2
49 37 3
49 38 9
49 39 4
49 40 6
49 41 5
49 42 9
49 43 2
49 44 2
49 45 3
49 46 5
49 47 3
49 48 3
50 0 3
50 1 3
50 2 7
50 3 4
50 4 3
50 5 9
50 6 4
50 7 7
50 8 9
50 9 1
50 10 6
50 11 4
50 12 7
50 13 6
50 14 4
50 15 4
50 16 5
50 17 7
50 18 8
50 19 9
50 20 7
50 21 6
50 22 2
50 23 2
50 24 4
50 25 8
50 26 7
50 27 4
50 28 1
50 29 4
50 30 6
50 31 9
50 32 5
50 33 9
50 34 5
50 35 4
50 36 8
50 37 9
50 38 4
50 39 3
50 40 8
50 41 7
50 42 7
50 43 7
50 44 7
50 45 6
50 46 7
50 47 3
50 48 5
50 49 9
51 0 4
51 1 6
51 2 4
51 3 5
51 4 4
51 5 1
51 6 9
51 7 2
51 8 3
51 9 7
51 10 4
51 11 7
51 12 7
51 13 3
51 14 1
51 15 9
51 16 3
51 17 2
51 18 6
51 19 7
51 20 3
51 21 5
51 22 3
51 23 8
51 24 1
51 25 6
51 26 4
51 27 9
51 28 8
51 29 5
51 30 8
51 31 4
51 32 8
51 33 6
51 34 6
51 35 4
51 36 4
51 37 5
51 38 2
51 39 3
51 40 1
51 41 3
51 42 2
51 43 2
51 44 3
51 45 3
51 46 7
51 47 7
51 48 2
51 49 3
51 50 4
52 0 8
52 1 2
52 2 2
52 3 3
52 4 7
52 5 2
52 6 4
52 7 4
52 8 8
52 9 8
52 10 8
52 11 3
52 12 4
52 13 5
52 14 1
52 15 6
52 16 9
52 17 6
52 18 3
52 19 1
52 20 5
52 21 6
52 22 5
52 23 8
52 24 6
52 25 2
52 26 6
52 27 4
52 28 7
52 29 9
52 30 6
52 31 9
52 32 6
52 33 8
52 34 6
52 35 3
52 36 1
52 37 5
52 38 4
52 39 2
52 40 2
52 41 8
52 42 8
52 43 6
52 44 4
52 45 5
52 46 2
52 47 7
52 48 2
52 49 2
52 50 9
52 51 1
53 0 9
53 1 3
53 2 2
53 3 8
53 4 9
53 5 1
53 6 5
53 7 3
53 8 7
53 9 4
53 10 4
53 11 3
53 12 9
53 13 1
53 14 8
53 15 3
53 16 5
53 17 7
53 18 9
53 19 7
53 20 7
53 21 2
53 22 3
53 23 9
53 24 5
53 25 9
53 26 1
53 27 6
53 28 6
53 29 9
53 30 2
53 31 8
53 32 2
53 33 7
53 34 9
53 35 9
53 36 5
53 37 3
53 38 2
53 39 3
53 40 6
53 41 2
53 42 1
53 43 8
53 44 3
53 45 3
53 46 8
53 47 5
53 48 4
53 49 9
53 50 4
53 51 2
53 52 7
54 0 6
54 1 9
54 2 2
54 3 5
54 4 9
54 5 7
54 6 5
54 7 8
54 8 3
54 9 6
54 10 1
54 11 4
54 12 1
54 13 7
54 14 3
54 15 2
54 16 1
54 17 1
54 18 7
54 19 6
54 20 3
54 21 1
54 22 5
54 23 6
54 24 9
54 25 3
54 26 1
54 27 6
54 28 5
54 29 9
54 30 5
54 31 6
54 32 3
54 33 4
54 34 9
54 35 8
54 36 1
54 37 8
54 38 1
54 39 3
54 40 6
54 41 4
54 42 7
54 43 1
54 44 1
54 45 7
54 46 1
54 47 2
54 48 9
54 49 5
54 50 8
54 51 8
54 52 1
54 53 5
55 0 1
55 1 7
55 2 8
55 3 2
55 4 7
55 5 9
55 6 7
55 7 9
55 8 2
55 9 2
55 10 9
55 11 3
55 12 6
55 13 7
55 14 2
55 15 5
55 16 1
55 17 5
55 18 9
55 19 9
55 20 9
55 21 7
55 22 9
55 23 9
55 24 9
55 25 8
55 26 4
55 27 5
55 28 9
55 29 9
55 30 2
55 31 4
55 32 9
55 33 5
55 34 3
55 35 7
55 36 6
55 37 7
55 38 3
55 39 6
55 40 1
55 41 9
55 42 5
55 43 4
55 44 7
55 45 8
55 46 9
55 47 2
55 48 9
55 49 5
55 50 7
55 51 5
55 52 2
55 53 8
55 54 2
56 0 9
56 1 9
56 2 5
56 3 5
56 4 5
56 5 3
56 6 5
56 7 2
56 8 9
56 9 7
56 10 6
56 11 5
56 12 7
56 13 7
56 14 9
56 15 3
56 16 9
56 17 3
56 18 3
56 19 4
56 20 9
56 21 1
56 22 8
56 23 3
56 24 3
56 25 3
56 26 5
56 27 5
56 28 1
56 29 7
56 30 6
56 31 7
56 32 1
56 33 6
56 34 4
56 35 8
56 36 5
56 37 5
56 38 5
56 39 4
56 40 6
56 41 2
56 42 6
56 43 2
56 44 4
56 45 4
56 46 3
56 47 7
56 48 4
56 49 9
56 50 4
56 51 5
56 52 6
56 53 6
56 54 9
56 55 6
57 0 3
57 1 1
57 2 6
57 3 3
57 4 3
57 5 5
57 6 6
57 7 5
57 8 6
57 9 5
57 10 9
57 11 7
57 12 6
57 13 6
57 14 7
57 15 2
57 16 2
57 17 3
57 18 9
57 19 3
57 20 8
57 21 5
57 22 1
57 23 6
57 24 6
57 25 1
57 26 7
57 27 9
57 28 8
57 29 9
57 30 7
57 31 9
57 32 3
57 33 4
57 34 5
57 35 5
57 36 3
57 37 9
57 38 4
57 39 9
57 40 5
57 41 9
57 42 5
57 43 2
57 44 7
57 45 4
57 46 5
57 47 7
57 48 2
57 49 6
57 50 9
57 51 8
57 52 1
57 53 7
57 54 2
57 55 9
57 56 8
58 0 5
58 1 7
58 2 1
58 3 7
58 4 3
58 5 7
58 6 8
58 7 4
58 8 2
58 9 8
58 10 7
58 11 1
58 12 2
58 13 9
58 14 7
58 15 3
58 16 5
58 17 5
58 18 5
58 19 1
58 20 2
58 21 8
58 22 9
58 23 9
58 24 4
58 25 5
58 26 3
58 27 1
58 28 1
58 29 3
58 30 8
58 31 7
58 32 4
58 33 6
58 34 1
58 35 7
58 36 7
58 37 2
58 38 9
58 39 4
58 40 2
58 41 3
58 42 8
58 43 4
58 44 2
58 45 7
58 46 5
58 47 7
58 48 9
58 49 4
58 50 8
58 51 9
58 52 2
58 53 2
58 54 9
58 55 3
58 56 6
58 57 5
59 0 3
59 1 2
59 2 1
59 3 7
59 4 3
59 5 1
59 6 3
59 7 8
59 8 8
59 9 8
59 10 5
59 11 3
59 12 8
59 13 9
59 14 5
59 15 9
59 16 3
59 17 2
59 18 9
59 19 3
59 20 4
59 21 6
59 22 5
59 23 3
59 24 1
59 25 4
59 26 8
59 27 1
59 28 3
59 29 6
59 30 2
59 31 1
59 32 4
59 33 9
59 34 8
59 35 1
59 36 2
59 37 5
59 38 9
59 39 8
59 40 2
59 41 1
59 42 6
59 43 7
59 44 1
59 45 4
59 46 9
59 47 2
59 48 4
59 49 6
59 50 7
59 51 3
59 52 8
59 53 8
59 54 8
59 55 6
59 56 3
59 57 8
59 58 7
60 0 9
60 1 7
60 2 2
60 3 2
60 4 3
60 5 7
60 6 7
60 7 2
60 8 6
60 9 5
60 10 7
60 11 2
60 12 7
60 13 8
60 14 3
60 15 6
60 16 2
60 17 8
60 18 2
60 19 9
60 20 7
60 21 1
60 22 1
60 23 1
60 24 2
60 25 2
60 26 3
60 27 6
60 28 8
60 29 3
60 30 7
60 31 7
60 32 5
60 33 6
60 34 7
60 35 8
60 36 5
60 37 6
60 38 3
60 39 9
60 40 7
60 41 4
60 42 7
60 43 3
60 44 8
60 45 8
60 46 3
60 47 4
60 48 1
60 49 7
60 50 1
60 51 7
60 52 4
60 53 4
60 54 6
60 55 9
60 56 9
60 57 2
60 58 8
60 59 1
61 0 8
61 1 7
61 2 3
61 3 5
61 4 6
61 5 3
61 6 4
61 7 1
61 8 3
61 9 2
61 10 6
61 11 8
61 12 6
61 13 4
61 14 8
61 15 6
61 16 5
61 17 8
61 18 5
61 19 7
61 20 5
61 21 9
61 22 8
61 23 7
61 24 5
61 25 6
61 26 9
61 27 2
61 28 4
61 29 7
61 30 6
61 31 7
61 32 2
61 33 2
61 34 8
61 35 2
61 36 6
61 37 7
61 38 4
61 39 2
61 40 9
61 41 9
61 42 3
61 43 1
61 44 5
61 45 4
61 46 4
61 47 8
61 48 7
61 49 6
61 50 4
61 51 7
61 52 9
61 53 5
61 54 4
61 55 1
61 56 6
61 57 4
61 58 5
61 59 1
61 60 3
62 0 8
62 1 3
62 2 1
62 3 7
62 4 2
62 5 9
62 6 6
62 7 8
62 8 9
62 9 3
62 10 2
62 11 3
62 12 6
62 13 3
62 14 8
62 15 2
62 16 3
62 17 9
62 18 7
62 19 6
62 20 9
62 21 4
62 22 8
62 23 5
62 24 4
62 25 5
62 26 8
62 27 5
62 28 5
62 29 8
62 30 1
62 31 6
62 32 7
62 33 8
62 34 3
62 35 6
62 36 9
62 37 8
62 38 1
62 39 9
62 40 5
62 41 8
62 42 9
62 43 9
62 44 1
62 45 8
62 46 5
62 47 6
62 48 6
62 49 4
62 50 3
62 51 3
62 52 4
62 53 4
62 54 2
62 55 8
62 56 7
62 57 4
62 58 9
62 59 9
62 60 8
62 61 6
63 0 8
63 1 5
63 2 9
63 3 4
63 4 6
63 5 7
63 6 6
63 7 8
63 8 5
63 9 8
63 10 8
63 11 9
63 12 7
63 13 7
63 14 1
63 15 8
63 16 3
63 17 7
63 18 6
63 19 3
63 20 5
63 21 4
63 22 5
63 23 3
63 24 5
63 25 2
63 26 8
63 27 1
63 28 6
63 29 6
63 30 8
63 31 9
63 32 3
63 33 6
63 34 8
63 35 6
63 36 5
63 37 1
63 38 4
63 39 6
63 40 6
63 41 4
63 42 2
63 43 9
63 44 6
63 45 6
63 46 9
63 47 5
63 48 2
63 49 6
63 50 3
63 51 8
63 52 9
63 53 8
63 54 8
63 55 9
63 56 6
63 57 2
63 58 5
63 59 5
63 60 2
63 61 5
63 62 8
64 0 1
64 1 5
64 2 3
64 3 3
64 4 4
64 5 7
64 6 1
64 7 7
64 8 9
64 9 2
64 10 9
64 11 7
64 12 3
64 13 3
64 14 4
64 15 5
64 16 1
64 17 3
64 18 2
64 19 3
64 20 2
64 21 9
64 22 5
64 23 5
64 24 5
64 25 2
64 26 9
64 27 3
64 28 2
64 29 3
64 30 5
64 31 4
64 32 2
64 33 3
64 34 3
64 35 9
64 36 7
64 37 3
64 38 6
64 39 5
64 40 4
64 41 8
64 42 8
64 43 7
64 44 5
64 45 7
64 46 9
64 47 3
64 48 6
64 49 7
64 50 5
64 51 3
64 52 3
64 53 2
64 54 5
64 55 9
64 56 5
64 57 2
64 58 5
64 59 3
64 60 8
64 61 6
64 62 6
64 63 3
65 0 1
65 1 5
65 2 8
65 3 7
65 4 9
65 5 3
65 6 1
65 7 2
65 8 2
65 9 9
65 10 4
65 11 1
65 12 5
65 13 8
65 14 5
65 15 7
65 16 4
65 17 2
65 18 7
65 19 2
65 20 7
65 21 2
65 22 6
65 23 4
65 24 9
65 25 8
65 26 6
65 27 4
65 28 9
65 29 3
65 30 8
65 31 7
65 32 5
65 33 4
65 34 7
65 35 7
65 36 1
65 37 2
65 38 7
65 39 6
65 40 2
65 41 8
65 42 5
65 43 8
65 44 3
65 45 1
65 46 7
65 47 1
65 48 9
65 49 4
65 50 5
65 51 7
65 52 9
65 53 2
65 54 9
65 55 6
65 56 4
65 57 2
65 58 1
65 59 8
65 60 8
65 61 4
65 62 2
65 63 5
65 64 3
66 0 6
66 1 2
66 2 2
66 3 7
66 4 8
66 5 8
66 6 3
66 7 5
66 8 9
66 9 1
66 10 9
66 11 8
66 12 2
66 13 8
66 14 8
66 15 1
66 16 2
66 17 9
66 18 7
66 19 3
66 20 7
66 21 6
66 22 5
66 23 5
66 24 5
66 25 3
66 26 9
66 27 5
66 28 9
66 29 6
66 30 2
66 31 6
66 32 9
66 33 7
66 34 9
66 35 1
66 36 6
66 37 4
66 38 6
66 39 3
66 40 8
66 41 8
66 42 8
66 43 6
66 44 9
66 45 9
66 46 8
66 47 2
66 48 8
66 49 3
66 50 9
66 51 4
66 52 2
66 53 5
66 54 1
66 55 7
66 56 3
66 57 5
66 58 4
66 59 2
66 60 5
66 61 2
66 62 1
66 63 9
66 64 4
66 65 6
67 0 6
67 1 7
67 2 7
67 3 2
67 4 3
67 5 1
67 6 6
67 7 8
67 8 1
67 9 3
67 10 3
67 11 8
67 12 4
67 13 7
67 14 9
67 15 7
67 16 4
67 17 1
67 18 7
67 19 5
67 20 4
67 21 7
67 22 7
67 23 8
67 24 4
67 25 1
67 26 7
67 27 9
67 28 7
67 29 5
67 30 7
67 31 6
67 32 5
67 33 2
67 34 3
67 35 9
67 36 5
67 37 7
67 38 8
67 39 4
67 40 5
67 41 1
67 42 8
67 43 6
67 44 4
67 45 5
67 46 7
67 47 6
67 48 5
67 49 7
67 50 5
67 51 9
67 52 3
67 53 4
67 54 4
67 55 8
67 56 7
67 57 2
67 58 9
67 59 7
67 60 7
67 61 7
67 62 2
67 63 4
67 64 9
67 65 3
67 66 6
68 0 2
68 1 4
68 2 9
68 3 8
68 4 6
68 5 8
68 6 9
68 7 5
68 8 3
68 9 5
68 10 8
68 11 1
68 12 4
68 13 3
68 14 3
68 15 6
68 16 4
68 17 7
68 18 2
68 19 9
68 20 3
68 21 3
68 22 7
68 23 1
68 24 5
68 25 1
68 26 6
68 27 9
68 28 5
68 29 3
68 30 2
68 31 9
68 32 1
68 33 6
68 34 1
68 35 8
68 36 8
68 37 4
68 38 8
68 39 4
68 40 6
68 41 3
68 42 9
68 43 9
68 44 7
68 45 4
68 46 5
68 47 9
68 48 9
68 49 7
68 50 9
68 51 6
68 52 5
68 53 6
68 54 8
68 55 1
68 56 4
68 57 4
68 58 5
68 59 2
68 60 8
68 61 4
68 62 8
68 63 3
68 64 6
68 65 6
68 66 4
68 67 2
69 0 7
69 1 3
69 2 4
69 3 3
69 4 5
69 5 6
69 6 7
69 7 2
69 8 2
69 9 3
69 10 1
69 11 4
69 12 5
69 13 2
69 14 7
69 15 2
69 16 3
69 17 8
69 18 3
69 19 7
69 20 8
69 21 7
69 22 5
69 23 2
69 24 6
69 25 2
69 26 8
69 27 9
69 28 8
69 29 6
69 30 2
69 31 1
69 32 5
69 33 1
69 34 9
69 35 1
69 36 1
69 37 4
69 38 1
69 39 2
69 40 4
69 41 6
69 42 8
69 43 7
69 44 7
69 45 6
69 46 9
69 47 3
69 48 6
69 49 8
69 50 9
69 51 1
69 52 9
69 53 2
69 54 7
69 55 5
69 56 3
69 57 6
69 58 9
69 59 9
69 60 9
69 61 6
69 62 4
69 63 5
69 64 8
69 65 1
69 66 6
69 67 7
69 68 5
